/ENCODING=ISO-8859-1
/Problem name: 
/ x* = [1.0, 0.0, 0.0, 0.0, 0.0, 1.0, 0.0, 0.0, 0.0, 1.0]
/ Solution value = 260.0

Maximize
 obj: 74 x_0 + 29 x_1 + x_2 + 43 x_3 + 39 x_4 + 93 x_5 + 62 x_6 + 42 x_7
      + 46 x_8 + 93 x_9
Subject To
 C0: x_0 <= 3
 C1: x_0 + x_1 <= 1
 C2: x_0 + x_1 + x_2 <= 1
 C3: x_0 + x_1 + x_2 + x_3 <= 2
 C4: x_0 + x_1 + x_2 + x_3 + x_4 <= 2
 C5: x_0 + x_1 + x_2 + x_3 + x_4 + x_5 <= 9
 C6: x_0 + x_1 + x_2 + x_3 + x_4 + x_5 + x_6 <= 9
 C7: x_0 + x_1 + x_2 + x_3 + x_4 + x_5 + x_6 + x_7 <= 7
 C8: x_0 + x_1 + x_2 + x_3 + x_4 + x_5 + x_6 + x_7 + x_8 <= 7
 C9: x_0 + x_1 + x_2 + x_3 + x_4 + x_5 + x_6 + x_7 + x_8 + x_9 <= 3
Bounds
 0 <= x_0 <= 1
 0 <= x_1 <= 1
 0 <= x_2 <= 1
 0 <= x_3 <= 1
 0 <= x_4 <= 1
 0 <= x_5 <= 1
 0 <= x_6 <= 1
 0 <= x_7 <= 1
 0 <= x_8 <= 1
 0 <= x_9 <= 1
End
